20	5
0	8	8	5	2	6	1	7	4	3
1	2	19	10
2	2	20	17
3	1	15
4	1	12
5	1	9
6	0
7	2	13	19
8	2	17	16
9	1	11
10	2	20	14
11	1	16
12	1	17
13	3	14	20	12
14	1	17
15	1	9
16	1	21
17	1	21
18	1	21
19	1	21
20	1	21
21	0
0	0	0	0	0	0	0
1	8	0	0	0	2	4
2	2	0	5	0	0	0
3	10	4	5	0	1	0
4	2	2	5	2	3	5
5	6	2	3	2	1	1
6	3	0	4	0	0	0
7	9	1	0	0	0	0
8	2	0	3	5	0	0
9	8	0	0	2	0	3
10	10	0	0	0	4	2
11	2	0	0	4	1	0
12	5	0	5	0	2	4
13	5	2	0	0	0	0
14	2	1	0	0	0	0
15	10	0	0	3	2	0
16	6	2	2	5	4	0
17	6	1	1	2	0	0
18	2	0	1	0	0	3
19	4	0	3	4	5	2
20	8	0	5	5	4	4
21	0	0	0	0	0	0
4	5	5	5	5
